p edge 145 1416 115
e 1 5
e 1 18
e 1 30
e 1 35
e 1 40
e 1 56
e 1 69
e 1 74
e 1 81
e 1 82
e 1 83
e 1 87
e 1 96
e 1 102
e 1 112
e 1 123
e 1 124
e 1 126
e 1 127
e 1 130
e 1 139
e 1 141
e 1 144
e 2 17
e 2 22
e 2 37
e 2 47
e 2 66
e 2 73
e 2 77
e 2 87
e 2 88
e 2 91
e 2 96
e 2 111
e 2 131
e 2 134
e 2 142
e 2 143
e 3 4
e 3 7
e 3 16
e 3 22
e 3 25
e 3 30
e 3 48
e 3 58
e 3 67
e 3 82
e 3 91
e 3 99
e 3 102
e 3 117
e 3 135
e 3 139
e 4 6
e 4 13
e 4 16
e 4 18
e 4 21
e 4 25
e 4 37
e 4 38
e 4 42
e 4 43
e 4 54
e 4 57
e 4 64
e 4 67
e 4 81
e 4 94
e 4 96
e 4 109
e 4 111
e 4 112
e 4 122
e 4 128
e 5 25
e 5 41
e 5 47
e 5 50
e 5 52
e 5 56
e 5 57
e 5 63
e 5 65
e 5 75
e 5 80
e 5 86
e 5 96
e 5 97
e 5 101
e 5 104
e 5 118
e 5 125
e 5 141
e 6 15
e 6 20
e 6 48
e 6 55
e 6 73
e 6 76
e 6 88
e 6 94
e 6 101
e 6 115
e 6 116
e 6 119
e 6 122
e 6 124
e 6 126
e 6 138
e 6 142
e 6 145
e 7 12
e 7 21
e 7 22
e 7 31
e 7 39
e 7 56
e 7 60
e 7 63
e 7 72
e 7 102
e 7 106
e 7 108
e 7 109
e 7 114
e 7 116
e 7 135
e 7 143
e 8 24
e 8 35
e 8 41
e 8 43
e 8 54
e 8 59
e 8 62
e 8 67
e 8 74
e 8 77
e 8 80
e 8 81
e 8 110
e 8 114
e 8 118
e 8 124
e 8 129
e 8 132
e 9 10
e 9 14
e 9 17
e 9 25
e 9 41
e 9 42
e 9 47
e 9 52
e 9 59
e 9 61
e 9 62
e 9 80
e 9 82
e 9 98
e 9 119
e 9 120
e 9 143
e 9 145
e 10 11
e 10 14
e 10 15
e 10 27
e 10 34
e 10 49
e 10 52
e 10 63
e 10 81
e 10 82
e 10 83
e 10 89
e 10 90
e 10 98
e 10 99
e 10 106
e 10 109
e 10 126
e 10 129
e 10 130
e 11 15
e 11 19
e 11 24
e 11 33
e 11 37
e 11 42
e 11 51
e 11 61
e 11 63
e 11 66
e 11 67
e 11 72
e 11 75
e 11 79
e 11 84
e 11 91
e 11 95
e 11 99
e 11 101
e 11 102
e 11 106
e 11 109
e 11 112
e 11 122
e 12 18
e 12 20
e 12 37
e 12 49
e 12 62
e 12 66
e 12 75
e 12 80
e 12 81
e 12 83
e 12 91
e 12 96
e 12 102
e 12 107
e 12 108
e 12 124
e 12 137
e 12 141
e 13 16
e 13 22
e 13 27
e 13 39
e 13 51
e 13 66
e 13 75
e 13 77
e 13 90
e 13 92
e 13 96
e 13 105
e 13 107
e 13 109
e 13 113
e 13 123
e 14 24
e 14 46
e 14 49
e 14 50
e 14 54
e 14 56
e 14 60
e 14 64
e 14 69
e 14 76
e 14 81
e 14 87
e 14 96
e 14 102
e 14 106
e 14 114
e 15 16
e 15 17
e 15 19
e 15 29
e 15 45
e 15 48
e 15 63
e 15 65
e 15 78
e 15 108
e 15 109
e 15 113
e 15 114
e 15 125
e 15 138
e 15 142
e 16 21
e 16 22
e 16 25
e 16 30
e 16 33
e 16 48
e 16 49
e 16 51
e 16 52
e 16 77
e 16 81
e 16 85
e 16 97
e 16 103
e 16 112
e 16 125
e 16 130
e 16 132
e 16 133
e 16 140
e 16 142
e 17 19
e 17 20
e 17 34
e 17 37
e 17 38
e 17 51
e 17 80
e 17 84
e 17 93
e 17 102
e 17 111
e 17 117
e 17 124
e 17 144
e 18 24
e 18 26
e 18 32
e 18 33
e 18 36
e 18 51
e 18 54
e 18 55
e 18 56
e 18 59
e 18 61
e 18 65
e 18 67
e 18 68
e 18 74
e 18 79
e 18 95
e 18 98
e 18 99
e 18 103
e 18 125
e 18 126
e 18 127
e 18 133
e 18 138
e 19 25
e 19 33
e 19 57
e 19 65
e 19 67
e 19 69
e 19 72
e 19 88
e 19 89
e 19 101
e 19 108
e 19 124
e 19 137
e 20 22
e 20 23
e 20 24
e 20 37
e 20 43
e 20 44
e 20 53
e 20 59
e 20 62
e 20 69
e 20 77
e 20 80
e 20 88
e 20 91
e 20 95
e 20 96
e 20 100
e 20 108
e 20 121
e 20 123
e 20 125
e 20 126
e 20 133
e 20 145
e 21 28
e 21 32
e 21 44
e 21 50
e 21 60
e 21 67
e 21 76
e 21 78
e 21 84
e 21 88
e 21 89
e 21 92
e 21 98
e 21 110
e 21 113
e 21 114
e 21 118
e 21 119
e 21 120
e 21 123
e 21 128
e 21 132
e 21 138
e 21 140
e 21 144
e 22 32
e 22 37
e 22 52
e 22 58
e 22 69
e 22 70
e 22 72
e 22 74
e 22 100
e 22 101
e 22 105
e 22 139
e 22 142
e 22 143
e 23 37
e 23 46
e 23 48
e 23 51
e 23 54
e 23 59
e 23 67
e 23 93
e 23 96
e 23 110
e 23 118
e 23 123
e 23 128
e 23 129
e 23 130
e 23 131
e 23 133
e 23 134
e 23 135
e 23 137
e 24 38
e 24 47
e 24 49
e 24 50
e 24 54
e 24 65
e 24 66
e 24 69
e 24 70
e 24 76
e 24 80
e 24 93
e 24 94
e 24 96
e 24 100
e 24 103
e 24 109
e 24 129
e 24 130
e 24 136
e 25 26
e 25 28
e 25 58
e 25 59
e 25 60
e 25 65
e 25 69
e 25 82
e 25 109
e 25 117
e 25 120
e 25 123
e 25 125
e 25 129
e 25 135
e 26 28
e 26 33
e 26 36
e 26 39
e 26 44
e 26 52
e 26 56
e 26 64
e 26 77
e 26 79
e 26 93
e 26 102
e 26 104
e 26 116
e 26 117
e 26 122
e 26 126
e 26 130
e 26 137
e 26 143
e 27 29
e 27 42
e 27 44
e 27 51
e 27 52
e 27 56
e 27 59
e 27 70
e 27 82
e 27 84
e 27 94
e 27 100
e 27 104
e 27 111
e 27 115
e 27 121
e 27 139
e 27 141
e 27 143
e 27 144
e 27 145
e 28 41
e 28 52
e 28 65
e 28 76
e 28 79
e 28 82
e 28 103
e 28 115
e 28 126
e 28 138
e 28 140
e 29 30
e 29 36
e 29 55
e 29 57
e 29 59
e 29 63
e 29 107
e 29 114
e 29 126
e 29 128
e 29 131
e 29 138
e 29 145
e 30 35
e 30 43
e 30 58
e 30 63
e 30 67
e 30 73
e 30 78
e 30 91
e 30 102
e 30 103
e 30 109
e 30 117
e 30 136
e 30 140
e 30 144
e 31 35
e 31 41
e 31 48
e 31 50
e 31 51
e 31 57
e 31 61
e 31 62
e 31 68
e 31 71
e 31 81
e 31 92
e 31 103
e 31 136
e 31 145
e 32 57
e 32 60
e 32 65
e 32 80
e 32 95
e 32 96
e 32 99
e 32 104
e 32 112
e 32 114
e 32 121
e 32 123
e 32 127
e 32 141
e 33 36
e 33 44
e 33 45
e 33 49
e 33 50
e 33 53
e 33 66
e 33 93
e 33 95
e 33 98
e 33 101
e 33 105
e 33 112
e 33 121
e 34 49
e 34 59
e 34 63
e 34 64
e 34 80
e 34 82
e 34 84
e 34 92
e 34 94
e 34 102
e 34 106
e 34 138
e 34 143
e 35 37
e 35 38
e 35 54
e 35 68
e 35 69
e 35 71
e 35 73
e 35 76
e 35 78
e 35 93
e 35 105
e 35 120
e 35 142
e 36 38
e 36 53
e 36 61
e 36 62
e 36 67
e 36 85
e 36 95
e 36 104
e 36 108
e 36 114
e 36 118
e 36 123
e 36 128
e 36 140
e 36 145
e 37 46
e 37 47
e 37 49
e 37 55
e 37 68
e 37 79
e 37 81
e 37 104
e 37 107
e 37 111
e 37 112
e 37 115
e 37 116
e 37 142
e 38 40
e 38 49
e 38 61
e 38 63
e 38 69
e 38 73
e 38 75
e 38 91
e 38 107
e 38 117
e 38 144
e 39 45
e 39 48
e 39 52
e 39 58
e 39 60
e 39 64
e 39 68
e 39 70
e 39 79
e 39 80
e 39 81
e 39 86
e 39 87
e 39 89
e 39 90
e 39 115
e 40 67
e 40 74
e 40 78
e 40 81
e 40 83
e 40 89
e 40 92
e 40 101
e 40 114
e 40 143
e 41 49
e 41 53
e 41 60
e 41 65
e 41 70
e 41 73
e 41 74
e 41 75
e 41 86
e 41 104
e 41 105
e 41 110
e 41 112
e 41 113
e 41 129
e 41 137
e 41 141
e 42 49
e 42 54
e 42 63
e 42 78
e 42 91
e 42 101
e 42 107
e 42 111
e 42 114
e 42 130
e 42 137
e 42 139
e 42 143
e 42 145
e 43 45
e 43 49
e 43 63
e 43 72
e 43 77
e 43 84
e 43 85
e 43 93
e 43 115
e 43 120
e 43 130
e 44 50
e 44 52
e 44 66
e 44 79
e 44 80
e 44 81
e 44 82
e 44 101
e 44 115
e 44 122
e 44 123
e 44 138
e 45 48
e 45 56
e 45 58
e 45 62
e 45 66
e 45 74
e 45 86
e 45 116
e 45 120
e 45 121
e 45 131
e 45 133
e 45 134
e 45 141
e 46 56
e 46 59
e 46 74
e 46 86
e 46 101
e 46 113
e 46 117
e 46 118
e 46 123
e 46 128
e 46 134
e 46 135
e 46 137
e 47 49
e 47 61
e 47 62
e 47 68
e 47 77
e 47 87
e 47 128
e 48 54
e 48 58
e 48 63
e 48 65
e 48 68
e 48 96
e 48 99
e 48 113
e 48 114
e 48 130
e 48 137
e 48 141
e 49 54
e 49 57
e 49 58
e 49 80
e 49 82
e 49 86
e 49 88
e 49 90
e 49 92
e 49 95
e 49 101
e 49 116
e 49 134
e 49 135
e 49 139
e 49 141
e 50 53
e 50 57
e 50 66
e 50 69
e 50 71
e 50 72
e 50 73
e 50 78
e 50 84
e 50 90
e 50 94
e 50 99
e 50 102
e 50 139
e 50 143
e 51 53
e 51 57
e 51 62
e 51 66
e 51 69
e 51 79
e 51 87
e 51 100
e 51 109
e 51 124
e 51 127
e 51 134
e 51 136
e 52 58
e 52 76
e 52 80
e 52 85
e 52 108
e 52 124
e 52 130
e 52 132
e 52 137
e 52 143
e 52 145
e 53 72
e 53 73
e 53 77
e 53 79
e 53 83
e 53 101
e 53 103
e 53 107
e 53 110
e 53 115
e 53 122
e 53 127
e 53 141
e 54 57
e 54 68
e 54 69
e 54 73
e 54 74
e 54 98
e 54 105
e 54 110
e 54 120
e 54 122
e 54 130
e 54 138
e 54 145
e 55 83
e 55 90
e 55 93
e 55 95
e 55 100
e 55 103
e 55 105
e 55 121
e 55 123
e 55 136
e 56 58
e 56 60
e 56 62
e 56 64
e 56 72
e 56 75
e 56 93
e 56 114
e 56 118
e 56 133
e 56 136
e 56 137
e 56 140
e 57 78
e 57 88
e 57 99
e 57 100
e 57 101
e 57 102
e 57 110
e 57 116
e 57 118
e 57 123
e 57 125
e 57 134
e 57 135
e 58 77
e 58 86
e 58 97
e 58 105
e 58 115
e 58 116
e 58 127
e 58 131
e 58 145
e 59 61
e 59 70
e 59 71
e 59 73
e 59 77
e 59 94
e 59 95
e 59 98
e 59 101
e 59 105
e 59 110
e 59 116
e 59 120
e 59 124
e 59 133
e 60 64
e 60 66
e 60 83
e 60 87
e 60 91
e 60 94
e 60 96
e 60 105
e 60 123
e 60 134
e 60 141
e 61 67
e 61 72
e 61 74
e 61 82
e 61 93
e 61 95
e 61 96
e 61 103
e 61 106
e 61 108
e 61 114
e 61 115
e 61 124
e 61 130
e 61 133
e 62 73
e 62 87
e 62 90
e 62 93
e 62 100
e 62 104
e 62 125
e 62 134
e 62 138
e 62 142
e 63 70
e 63 75
e 63 77
e 63 91
e 63 100
e 63 104
e 63 105
e 63 121
e 63 125
e 63 135
e 63 136
e 63 143
e 64 67
e 64 69
e 64 75
e 64 88
e 64 96
e 64 97
e 64 98
e 64 114
e 64 123
e 64 129
e 64 131
e 64 144
e 65 78
e 65 86
e 65 89
e 65 93
e 65 94
e 65 104
e 65 107
e 65 112
e 65 115
e 65 120
e 65 122
e 65 131
e 65 132
e 65 144
e 66 81
e 66 86
e 66 100
e 66 115
e 66 122
e 67 82
e 67 91
e 67 94
e 67 96
e 67 101
e 67 110
e 67 112
e 67 126
e 67 135
e 67 139
e 67 144
e 68 102
e 68 107
e 68 110
e 68 132
e 69 81
e 69 84
e 69 85
e 69 93
e 69 103
e 69 116
e 69 121
e 69 122
e 69 125
e 69 138
e 69 141
e 69 145
e 70 75
e 70 89
e 70 91
e 70 93
e 70 96
e 70 104
e 70 105
e 70 115
e 70 121
e 70 128
e 70 129
e 70 134
e 70 138
e 70 141
e 70 145
e 71 79
e 71 88
e 71 89
e 71 108
e 71 114
e 71 117
e 71 125
e 71 127
e 71 137
e 71 142
e 72 93
e 72 96
e 72 107
e 72 121
e 72 122
e 72 129
e 72 131
e 72 136
e 72 143
e 72 145
e 73 77
e 73 82
e 73 91
e 73 97
e 73 126
e 73 137
e 74 76
e 74 79
e 74 93
e 74 96
e 74 102
e 74 123
e 74 125
e 74 132
e 74 134
e 74 135
e 74 139
e 75 79
e 75 80
e 75 81
e 75 90
e 75 99
e 75 101
e 75 102
e 75 107
e 75 110
e 75 117
e 75 133
e 75 136
e 75 142
e 76 98
e 76 112
e 76 116
e 76 117
e 76 123
e 76 126
e 76 128
e 76 129
e 76 135
e 77 82
e 77 103
e 77 105
e 77 107
e 77 110
e 77 111
e 77 113
e 77 127
e 77 142
e 78 84
e 78 85
e 78 96
e 78 98
e 78 101
e 78 110
e 78 123
e 78 125
e 78 129
e 78 142
e 79 83
e 79 88
e 79 114
e 79 115
e 79 119
e 79 134
e 79 140
e 79 141
e 79 144
e 80 82
e 80 95
e 80 101
e 80 109
e 80 112
e 80 123
e 80 124
e 80 132
e 80 137
e 80 138
e 81 103
e 81 115
e 81 117
e 81 122
e 81 124
e 81 133
e 81 145
e 82 87
e 82 90
e 82 94
e 82 106
e 82 115
e 82 121
e 82 134
e 83 99
e 83 117
e 83 120
e 83 122
e 83 124
e 83 129
e 83 133
e 83 134
e 84 93
e 84 94
e 84 99
e 84 101
e 84 133
e 84 139
e 85 96
e 85 99
e 85 103
e 85 138
e 86 91
e 86 95
e 86 115
e 86 125
e 86 130
e 86 131
e 86 133
e 87 92
e 87 95
e 87 99
e 87 102
e 87 114
e 87 116
e 87 132
e 87 140
e 87 141
e 87 142
e 88 90
e 88 96
e 88 98
e 88 111
e 88 112
e 88 119
e 88 123
e 88 129
e 88 131
e 89 90
e 89 98
e 89 99
e 89 101
e 89 104
e 89 108
e 89 123
e 89 138
e 89 139
e 90 102
e 90 113
e 90 116
e 90 119
e 90 127
e 90 136
e 91 92
e 91 100
e 91 101
e 91 105
e 91 119
e 91 125
e 91 128
e 92 94
e 92 103
e 92 106
e 92 118
e 92 119
e 92 122
e 92 134
e 92 144
e 92 145
e 93 95
e 93 98
e 93 116
e 93 117
e 93 129
e 93 136
e 94 100
e 94 110
e 94 112
e 94 113
e 94 121
e 94 123
e 94 124
e 94 133
e 94 141
e 95 117
e 95 119
e 95 122
e 95 123
e 96 100
e 96 114
e 96 115
e 96 126
e 96 131
e 96 132
e 96 133
e 96 136
e 96 137
e 96 138
e 96 139
e 97 102
e 97 119
e 97 120
e 97 125
e 97 137
e 98 117
e 98 123
e 98 126
e 99 107
e 99 111
e 99 118
e 99 119
e 99 120
e 99 142
e 99 145
e 100 104
e 100 111
e 100 125
e 100 126
e 100 127
e 100 132
e 100 141
e 100 144
e 101 104
e 101 111
e 101 122
e 101 127
e 102 112
e 102 114
e 102 115
e 102 119
e 102 128
e 102 131
e 102 133
e 103 108
e 103 111
e 103 140
e 104 106
e 104 112
e 104 116
e 104 125
e 104 126
e 104 130
e 104 142
e 105 111
e 105 114
e 105 118
e 105 125
e 105 128
e 106 109
e 106 110
e 106 113
e 106 116
e 106 128
e 106 130
e 106 137
e 107 130
e 107 132
e 107 138
e 107 140
e 108 109
e 108 112
e 108 124
e 108 135
e 108 136
e 108 138
e 108 144
e 108 145
e 109 114
e 109 117
e 109 122
e 109 130
e 109 135
e 109 138
e 109 142
e 110 111
e 110 113
e 110 117
e 110 133
e 110 134
e 110 135
e 110 137
e 110 141
e 111 127
e 111 140
e 112 116
e 112 123
e 112 128
e 112 130
e 112 133
e 112 139
e 112 140
e 113 116
e 114 128
e 114 138
e 114 141
e 115 120
e 115 122
e 115 124
e 115 144
e 116 121
e 116 124
e 116 137
e 116 139
e 117 118
e 117 123
e 117 138
e 118 119
e 118 128
e 118 129
e 118 130
e 118 143
e 119 127
e 119 129
e 119 130
e 119 138
e 119 140
e 120 124
e 120 126
e 120 130
e 120 131
e 120 132
e 120 141
e 121 131
e 121 134
e 122 125
e 122 140
e 122 143
e 123 124
e 123 141
e 124 128
e 124 134
e 124 138
e 125 127
e 125 142
e 125 143
e 126 127
e 126 132
e 126 145
e 127 134
e 128 138
e 129 133
e 130 133
e 130 141
e 131 133
e 131 134
e 133 145
e 134 139
e 134 141
e 136 137
e 136 143
e 137 142
e 140 145
e 143 144
e 144 145
